690232
0,35,6,209,182,19,116,25,21,88,106,160,204,195,178,191,36,33,74,214,77,27,150,49,107,93,34,86,54,129,80,39,26,168,101,61,111,154,132,228,161,134,82,156,73,42,30,198,22,68,225,176,50,97,41,159,112,72,208,217,205,135,180,123,172,130,147,181,60,24,122,84,187,166,78,94,56,75,138,57,10,142,196,213,45,124,226,18,133,110,47,224,46,16,103,229,211,44,203,171,167,92,212,58,220,51,79,131,148,114,1,81,157,76,221,127,140,23,65,104,215,99,52,91,17,55,53,174,201,98,189,218,105,40,120,179,102,186,11,145,87,227,108,89,185,170,149,169,141,3,20,216,152,128,32,223,37,202,5,222,175,219,12,193,96,164,13,163,153,64,199,197,173,28,83,192,194,118,85,69,125,121,151,190,113,9,200,109,119,7,14,29,63,43,4,155,144,210,67,8,100,183,115,165,95,90,143,136,59,137,2,184,15,188,207,158,177,162,126,146,206,38,66,48,117,70,139,31,62,71,0